6490
8596
6291
3287
6708
8884
9291
8767
2352
6577
3557
7564
5360
9103
8060
1002
5093
1272
3827
5633
764
956
3382
9065
1602
4000
2536
552
6725
6640
5653
6058
7523
9820
9287
3299
8940
2249
6384
10118
4682
1082
1642
6869
4366
1949
6485
907
7437
1095
1289
